7744
1 1 0 0 0 0 0 0 1 1 0 0 1 1 1 0 0 0 0 0 0 1 0 0 0 0 0 0 1 0 
0 0 0 0 0 0 0 12 1 28 1 1 1 1 1 12 13 12 21 21 21 8 13 13 13 13 9 8 8 8 9 8 9 9 0 21 21 13 14 1 28 14 12 0 14 14 12 13 13 13 9 13 8 0 14 13 13 28 21 14 21 21 28 28 28 13 14 13 28 12 
